File "./GRP207-1/SMT.v", line 6, characters 0-26:
Warning: Interpreting this declaration as if a global declaration prefixed by
"Local", i.e. as a global declaration which shall not be available without
qualification when imported. [local-declaration,vernacular,default]
File "./GRP207-1/SMT.v", line 7, characters 0-32:
Warning: Interpreting this declaration as if a global declaration prefixed by
"Local", i.e. as a global declaration which shall not be available without
qualification when imported. [local-declaration,vernacular,default]
File "./GRP207-1/SMT.v", line 8, characters 0-15:
Warning: Interpreting this declaration as if a global declaration prefixed by
"Local", i.e. as a global declaration which shall not be available without
qualification when imported. [local-declaration,vernacular,default]
File "./GRP207-1/SMT.v", line 9, characters 0-15:
Warning: Interpreting this declaration as if a global declaration prefixed by
"Local", i.e. as a global declaration which shall not be available without
qualification when imported. [local-declaration,vernacular,default]
File "./GRP207-1/SMT.v", line 10, characters 0-15:
Warning: Interpreting this declaration as if a global declaration prefixed by
"Local", i.e. as a global declaration which shall not be available without
qualification when imported. [local-declaration,vernacular,default]
File "./GRP207-1/SMT.v", line 11, characters 0-15:
Warning: Interpreting this declaration as if a global declaration prefixed by
"Local", i.e. as a global declaration which shall not be available without
qualification when imported. [local-declaration,vernacular,default]
veriT --proof-prune --proof-merge --proof-with-sharing --cnf-definitional --disable-ackermann --input=smtlib2 --proof=/tmp/verit_coq8ee3af.vtlog /tmp/verit_coq8ee3af.smt2 2> /tmp/warnings_veritc6352f.log
veriT dev - the SMT-solver veriT (UFRN/LORIA).
success
success
success
success
success
success
success
success
success
unknown
success
success
Verit = 0.00007
(set-option :print-success true)
(set-option :produce-assignments true)
(set-option :produce-proofs true)
(set-logic QF_UFLIA)
(declare-fun op_2 () Int)
(declare-fun op_5 () Int)
(declare-fun op_0 () Int)
(declare-fun op_1 () Int)
(declare-fun op_3 (Int ) Int)
(declare-fun op_4 (Int Int ) Int)
(assert (not (= (op_4 op_0 (op_3 (op_4 op_1 (op_4 (op_4 (op_4 op_2 (op_3 op_2)) (op_3 (op_4 op_5 op_1))) op_0)))) op_5)))
(check-sat)
(get-model)
File "./GRP207-1/SMT.v", line 19, characters 2-5:
Error:
CVC4 returned sat. Here is the model:

x := -1
y := 2
z := 0
inverse := fun BOUND_VARIABLE_355 => if BOUND_VARIABLE_355 = -3 then 4 else if BOUND_VARIABLE_355 = 0 then -2 else 6
multiply := fun BOUND_VARIABLE_388 BOUND_VARIABLE_389 => if BOUND_VARIABLE_388 = -4 then if BOUND_VARIABLE_389 = -1 then 5 else -6 else if BOUND_VARIABLE_388 = 3 then if BOUND_VARIABLE_389 = 4 then -4 else -6 else if BOUND_VARIABLE_388 = 2 then if BOUND_VARIABLE_389 = 5 then -5 else -6 else if BOUND_VARIABLE_388 = 1 then if BOUND_VARIABLE_389 = 2 then -3 else -6 else if BOUND_VARIABLE_388 = 0 then if BOUND_VARIABLE_389 = -2 then 3 else -6 else -6
u := 1

